(set-info :smt-lib-version 2.6)
(set-logic QF_NIA)
(set-info :source |
Generated by: Cristina Borralleras, Daniel Larraz, Albert Oliveras, Enric Rodriguez-Carbonell, Albert Rubio
Generated on: 2017-04-27
Generator: VeryMax
Application: Termination proving
Target solver: barcelogic
|)
(set-info :license "https://creativecommons.org/licenses/by/4.0/")
(set-info :category "industrial")
(set-info :status unsat)
(declare-fun Nl4a_178^01 () Int)
(declare-fun Nl4len_181^01 () Int)
(declare-fun Nl4x_12^01 () Int)
(declare-fun Nl4y_11^01 () Int)
(declare-fun lam0n0 () Int)
(declare-fun lam0n1 () Int)
(declare-fun lam0n2 () Int)
(declare-fun lam0n3 () Int)
(declare-fun lam0n4 () Int)
(declare-fun Nl4CT1 () Int)
(declare-fun lam1n0 () Int)
(declare-fun lam1n1 () Int)
(declare-fun lam1n2 () Int)
(declare-fun lam1n3 () Int)
(declare-fun lam1n4 () Int)
(declare-fun lam2n0 () Int)
(declare-fun lam2n1 () Int)
(declare-fun lam2n2 () Int)
(declare-fun lam2n3 () Int)
(declare-fun lam2n4 () Int)
(declare-fun lam2n5 () Int)
(declare-fun lam3n0 () Int)
(declare-fun lam3n1 () Int)
(declare-fun lam3n2 () Int)
(declare-fun lam3n3 () Int)
(declare-fun lam3n4 () Int)
(declare-fun lam3n5 () Int)
(declare-fun lam4n0 () Int)
(declare-fun lam4n1 () Int)
(declare-fun lam4n2 () Int)
(declare-fun lam4n3 () Int)
(declare-fun lam4n4 () Int)
(declare-fun lam4n5 () Int)
(declare-fun lam4n23 () Int)
(declare-fun lam4n24 () Int)
(declare-fun lam4n25 () Int)
(declare-fun lam4n6 () Int)
(declare-fun lam4n7 () Int)
(declare-fun lam4n8 () Int)
(declare-fun lam4n9 () Int)
(declare-fun lam4n10 () Int)
(declare-fun lam4n11 () Int)
(declare-fun lam4n12 () Int)
(declare-fun lam4n13 () Int)
(declare-fun lam4n14 () Int)
(declare-fun lam4n15 () Int)
(declare-fun lam4n16 () Int)
(declare-fun lam4n17 () Int)
(declare-fun lam4n18 () Int)
(declare-fun lam4n19 () Int)
(declare-fun lam4n20 () Int)
(declare-fun lam4n21 () Int)
(declare-fun lam4n22 () Int)
(declare-fun lam5n0 () Int)
(declare-fun lam5n1 () Int)
(declare-fun lam5n2 () Int)
(declare-fun lam5n3 () Int)
(declare-fun lam5n4 () Int)
(declare-fun lam5n5 () Int)
(declare-fun lam5n23 () Int)
(declare-fun lam5n24 () Int)
(declare-fun lam5n25 () Int)
(declare-fun lam5n6 () Int)
(declare-fun lam5n7 () Int)
(declare-fun lam5n8 () Int)
(declare-fun lam5n9 () Int)
(declare-fun lam5n10 () Int)
(declare-fun lam5n11 () Int)
(declare-fun lam5n12 () Int)
(declare-fun lam5n13 () Int)
(declare-fun lam5n14 () Int)
(declare-fun lam5n15 () Int)
(declare-fun lam5n16 () Int)
(declare-fun lam5n17 () Int)
(declare-fun lam5n18 () Int)
(declare-fun lam5n19 () Int)
(declare-fun lam5n20 () Int)
(declare-fun lam5n21 () Int)
(declare-fun lam5n22 () Int)
(declare-fun lam6n0 () Int)
(declare-fun lam6n1 () Int)
(declare-fun lam6n2 () Int)
(declare-fun lam6n3 () Int)
(declare-fun lam6n4 () Int)
(declare-fun lam6n5 () Int)
(declare-fun lam6n23 () Int)
(declare-fun lam6n24 () Int)
(declare-fun lam6n25 () Int)
(declare-fun lam6n6 () Int)
(declare-fun lam6n7 () Int)
(declare-fun lam6n8 () Int)
(declare-fun lam6n9 () Int)
(declare-fun lam6n10 () Int)
(declare-fun lam6n11 () Int)
(declare-fun lam6n12 () Int)
(declare-fun lam6n13 () Int)
(declare-fun lam6n14 () Int)
(declare-fun lam6n15 () Int)
(declare-fun lam6n16 () Int)
(declare-fun lam6n17 () Int)
(declare-fun lam6n18 () Int)
(declare-fun lam6n19 () Int)
(declare-fun lam6n20 () Int)
(declare-fun lam6n21 () Int)
(declare-fun lam6n22 () Int)
(declare-fun lam7n0 () Int)
(declare-fun lam7n1 () Int)
(declare-fun lam7n2 () Int)
(declare-fun lam7n3 () Int)
(declare-fun lam7n4 () Int)
(declare-fun lam7n5 () Int)
(declare-fun lam7n23 () Int)
(declare-fun lam7n24 () Int)
(declare-fun lam7n25 () Int)
(declare-fun lam7n6 () Int)
(declare-fun lam7n7 () Int)
(declare-fun lam7n8 () Int)
(declare-fun lam7n9 () Int)
(declare-fun lam7n10 () Int)
(declare-fun lam7n11 () Int)
(declare-fun lam7n12 () Int)
(declare-fun lam7n13 () Int)
(declare-fun lam7n14 () Int)
(declare-fun lam7n15 () Int)
(declare-fun lam7n16 () Int)
(declare-fun lam7n17 () Int)
(declare-fun lam7n18 () Int)
(declare-fun lam7n19 () Int)
(declare-fun lam7n20 () Int)
(declare-fun lam7n21 () Int)
(declare-fun lam7n22 () Int)
(declare-fun a_178^0 () Int)
(declare-fun k_121^0 () Int)
(declare-fun undef36 () Int)
(declare-fun y_11^0 () Int)
(declare-fun undef11 () Int)
(declare-fun undef81 () Int)
(declare-fun len_181^0 () Int)
(declare-fun a_10^0 () Int)
(declare-fun undef32 () Int)
(declare-fun undef43 () Int)
(declare-fun undef52 () Int)
(declare-fun undef40 () Int)
(declare-fun undef46 () Int)
(declare-fun undef53 () Int)
(declare-fun undef60 () Int)
(declare-fun undef48 () Int)
(declare-fun undef54 () Int)
(declare-fun undef61 () Int)
(declare-fun undef50 () Int)
(declare-fun undef55 () Int)
(declare-fun undef62 () Int)
(declare-fun undef63 () Int)
(declare-fun undef64 () Int)
(declare-fun undef65 () Int)
(declare-fun undef56 () Int)
(declare-fun undef57 () Int)
(declare-fun undef58 () Int)
(declare-fun undef59 () Int)
(declare-fun undef38 () Int)
(declare-fun undef26 () Int)
(declare-fun undef97 () Int)
(declare-fun lam11n0 () Int)
(declare-fun lam11n1 () Int)
(declare-fun lam11n2 () Int)
(declare-fun lam11n3 () Int)
(declare-fun lam11n4 () Int)
(declare-fun lam11n5 () Int)
(declare-fun lam11n6 () Int)
(declare-fun lam11n7 () Int)
(declare-fun lam11n8 () Int)
(declare-fun lam11n9 () Int)
(declare-fun lam11n10 () Int)
(declare-fun lam11n11 () Int)
(declare-fun lam11n12 () Int)
(declare-fun RFN1_CT () Int)
(declare-fun RFN1_len_181^0 () Int)
(declare-fun RFN1_x_12^0 () Int)
(declare-fun RFN1_a_178^0 () Int)
(declare-fun RFN1_y_11^0 () Int)
(declare-fun lam15n0 () Int)
(declare-fun lam15n1 () Int)
(declare-fun lam15n2 () Int)
(declare-fun lam15n3 () Int)
(declare-fun lam15n4 () Int)
(declare-fun lam15n5 () Int)
(declare-fun lam15n6 () Int)
(declare-fun lam15n7 () Int)
(declare-fun lam15n8 () Int)
(declare-fun lam15n9 () Int)
(declare-fun lam15n10 () Int)
(declare-fun lam15n11 () Int)
(declare-fun lam15n12 () Int)
(declare-fun lam9n0 () Int)
(declare-fun lam9n1 () Int)
(declare-fun lam9n2 () Int)
(declare-fun lam9n3 () Int)
(declare-fun lam9n4 () Int)
(declare-fun lam9n5 () Int)
(declare-fun lam9n6 () Int)
(declare-fun lam9n7 () Int)
(declare-fun lam9n8 () Int)
(declare-fun lam9n9 () Int)
(declare-fun lam9n10 () Int)
(declare-fun lam9n11 () Int)
(declare-fun lam9n12 () Int)
(declare-fun lam10n0 () Int)
(declare-fun lam10n1 () Int)
(declare-fun lam10n2 () Int)
(declare-fun lam10n3 () Int)
(declare-fun lam10n4 () Int)
(declare-fun lam10n5 () Int)
(declare-fun lam10n6 () Int)
(declare-fun lam10n7 () Int)
(declare-fun lam10n8 () Int)
(declare-fun lam10n9 () Int)
(declare-fun lam10n10 () Int)
(declare-fun lam10n11 () Int)
(declare-fun lam10n12 () Int)
(declare-fun lam13n0 () Int)
(declare-fun lam13n1 () Int)
(declare-fun lam13n2 () Int)
(declare-fun lam13n3 () Int)
(declare-fun lam13n4 () Int)
(declare-fun lam13n5 () Int)
(declare-fun lam13n6 () Int)
(declare-fun lam13n7 () Int)
(declare-fun lam13n8 () Int)
(declare-fun lam13n9 () Int)
(declare-fun lam13n10 () Int)
(declare-fun lam13n11 () Int)
(declare-fun lam13n12 () Int)
(declare-fun lam14n0 () Int)
(declare-fun lam14n1 () Int)
(declare-fun lam14n2 () Int)
(declare-fun lam14n3 () Int)
(declare-fun lam14n4 () Int)
(declare-fun lam14n5 () Int)
(declare-fun lam14n6 () Int)
(declare-fun lam14n7 () Int)
(declare-fun lam14n8 () Int)
(declare-fun lam14n9 () Int)
(declare-fun lam14n10 () Int)
(declare-fun lam14n11 () Int)
(declare-fun lam14n12 () Int)
(declare-fun lam8n0 () Int)
(declare-fun lam8n1 () Int)
(declare-fun lam8n2 () Int)
(declare-fun lam8n3 () Int)
(declare-fun lam8n4 () Int)
(declare-fun lam8n5 () Int)
(declare-fun lam8n6 () Int)
(declare-fun lam8n7 () Int)
(declare-fun lam8n8 () Int)
(declare-fun lam8n9 () Int)
(declare-fun lam8n10 () Int)
(declare-fun lam8n11 () Int)
(declare-fun lam8n12 () Int)
(declare-fun lam12n0 () Int)
(declare-fun lam12n1 () Int)
(declare-fun lam12n2 () Int)
(declare-fun lam12n3 () Int)
(declare-fun lam12n4 () Int)
(declare-fun lam12n5 () Int)
(declare-fun lam12n6 () Int)
(declare-fun lam12n7 () Int)
(declare-fun lam12n8 () Int)
(declare-fun lam12n9 () Int)
(declare-fun lam12n10 () Int)
(declare-fun lam12n11 () Int)
(declare-fun lam12n12 () Int)
(assert ( and ( <= ( - 1 ) Nl4a_178^01 ) ( <= Nl4a_178^01 1 ) ( <= ( - 1 ) Nl4len_181^01 ) ( <= Nl4len_181^01 1 ) ( <= ( - 1 ) Nl4x_12^01 ) ( <= Nl4x_12^01 1 ) ( <= ( - 1 ) Nl4y_11^01 ) ( <= Nl4y_11^01 1 ) ))
(assert ( or ( and ( >= lam0n0 0 ) ( >= lam0n1 0 ) ( >= lam0n2 0 ) ( >= lam0n3 0 ) ( >= lam0n4 0 ) ( > ( + ( * 1 lam0n1 ) ( * 1 lam0n2 ) ( * 2 lam0n3 ) ( * Nl4CT1 lam0n4 ) ( - 1 ) ) 0 ) ( = ( + ( * ( - 1 ) lam0n0 ) ( * Nl4a_178^01 lam0n4 ) ) 0 ) ( = ( + ( * ( - 1 ) lam0n1 ) ( * ( - 1 ) lam0n3 ) ( * Nl4len_181^01 lam0n4 ) ) 0 ) ( = ( + ( * ( - 1 ) lam0n2 ) ( * ( - 1 ) lam0n3 ) ( * Nl4x_12^01 lam0n4 ) ) 0 ) ( = ( + ( * 1 lam0n2 ) ( * 1 lam0n3 ) ( * Nl4y_11^01 lam0n4 ) ) 0 ) ) ( and ( >= lam1n0 0 ) ( >= lam1n1 0 ) ( >= lam1n2 0 ) ( >= lam1n3 0 ) ( >= lam1n4 0 ) ( > ( + ( * 1 lam1n1 ) ( * 1 lam1n2 ) ( * 2 lam1n3 ) ( * Nl4CT1 lam1n4 ) ( - 1 ( + ( + Nl4CT1 ( * Nl4len_181^01 1 ) ) ( * Nl4x_12^01 0 ) ) ) ) 0 ) ( = ( + ( * ( - 1 ) lam1n0 ) ( * Nl4a_178^01 lam1n4 ) ( - ( + 0 Nl4a_178^01 ) ) ) 0 ) ( = ( + ( * ( - 1 ) lam1n1 ) ( * ( - 1 ) lam1n3 ) ( * Nl4len_181^01 lam1n4 ) ( - ( + 0 ( * Nl4len_181^01 1 ) ) ) ) 0 ) ( = ( + ( * ( - 1 ) lam1n2 ) ( * ( - 1 ) lam1n3 ) ( * Nl4x_12^01 lam1n4 ) ) 0 ) ( = ( + ( * 1 lam1n2 ) ( * 1 lam1n3 ) ( * Nl4y_11^01 lam1n4 ) ( - ( + 0 Nl4y_11^01 ) ) ) 0 ) ( = ( - ( + 0 ( * Nl4x_12^01 1 ) ) ) 0 ) ) ))
(assert ( or ( and ( >= lam2n0 0 ) ( >= lam2n1 0 ) ( >= lam2n2 0 ) ( >= lam2n3 0 ) ( >= lam2n4 0 ) ( >= lam2n5 0 ) ( > ( + ( * 1 lam2n1 ) ( * 1 lam2n2 ) ( * 1 lam2n3 ) ( * 2 lam2n4 ) ( * Nl4CT1 lam2n5 ) ( - 1 ) ) 0 ) ( = ( + ( * ( - 1 ) lam2n0 ) ( * ( - 1 ) lam2n1 ) ( * ( - 1 ) lam2n4 ) ( * Nl4a_178^01 lam2n5 ) ) 0 ) ( = ( + ( * ( - 1 ) lam2n1 ) ( * ( - 1 ) lam2n2 ) ( * ( - 1 ) lam2n4 ) ( * Nl4len_181^01 lam2n5 ) ) 0 ) ( = ( + ( * 1 lam2n3 ) ( * 1 lam2n4 ) ( * Nl4x_12^01 lam2n5 ) ) 0 ) ( = ( + ( * ( - 1 ) lam2n3 ) ( * ( - 1 ) lam2n4 ) ( * Nl4y_11^01 lam2n5 ) ) 0 ) ) ( and ( >= lam3n0 0 ) ( >= lam3n1 0 ) ( >= lam3n2 0 ) ( >= lam3n3 0 ) ( >= lam3n4 0 ) ( >= lam3n5 0 ) ( > ( + ( * 1 lam3n1 ) ( * 1 lam3n2 ) ( * 1 lam3n3 ) ( * 2 lam3n4 ) ( * Nl4CT1 lam3n5 ) ( - 1 ( + ( + Nl4CT1 ( * Nl4len_181^01 1 ) ) ( * Nl4x_12^01 0 ) ) ) ) 0 ) ( = ( + ( * ( - 1 ) lam3n0 ) ( * ( - 1 ) lam3n1 ) ( * ( - 1 ) lam3n4 ) ( * Nl4a_178^01 lam3n5 ) ( - ( + 0 Nl4a_178^01 ) ) ) 0 ) ( = ( + ( * ( - 1 ) lam3n1 ) ( * ( - 1 ) lam3n2 ) ( * ( - 1 ) lam3n4 ) ( * Nl4len_181^01 lam3n5 ) ( - ( + 0 ( * Nl4len_181^01 1 ) ) ) ) 0 ) ( = ( + ( * 1 lam3n3 ) ( * 1 lam3n4 ) ( * Nl4x_12^01 lam3n5 ) ) 0 ) ( = ( + ( * ( - 1 ) lam3n3 ) ( * ( - 1 ) lam3n4 ) ( * Nl4y_11^01 lam3n5 ) ( - ( + 0 Nl4y_11^01 ) ) ) 0 ) ( = ( - ( + 0 ( * Nl4x_12^01 1 ) ) ) 0 ) ) ))
(assert ( or ( and ( not ( <= ( + 1 a_178^0 ) 0 ) ) ( <= ( * ( - 1 ) k_121^0 ) 0 ) ( <= ( * ( - 1 ) undef36 ) 0 ) ( <= ( + 1 y_11^0 ( * ( - 1 ) undef11 ) ) 0 ) ( not ( <= ( + y_11^0 ( * ( - 1 ) undef81 ) ) 0 ) ) ( not ( <= ( + ( - 1 ) a_178^0 len_181^0 y_11^0 ( * ( - 1 ) undef81 ) ) 0 ) ) ( = ( + a_10^0 ( * ( - 1 ) undef11 ) ) 0 ) ( = ( + undef32 ( * ( - 1 ) undef43 ) ) 0 ) ( = ( + undef32 ( * ( - 1 ) undef52 ) ) 0 ) ( = ( + undef40 ( * ( - 1 ) undef43 ) ) 0 ) ( = ( + undef46 ( * ( - 1 ) undef53 ) ) 0 ) ( = ( + undef46 ( * ( - 1 ) undef60 ) ) 0 ) ( = ( + undef48 ( * ( - 1 ) undef54 ) ) 0 ) ( = ( + undef48 ( * ( - 1 ) undef61 ) ) 0 ) ( = ( + undef50 ( * ( - 1 ) undef55 ) ) 0 ) ( = ( + undef50 ( * ( - 1 ) undef62 ) ) 0 ) ( = ( + undef53 ( * ( - 1 ) undef63 ) ) 0 ) ( = ( + undef54 ( * ( - 1 ) undef64 ) ) 0 ) ( = ( + undef55 ( * ( - 1 ) undef65 ) ) 0 ) ( = ( + undef56 ( * ( - 1 ) undef63 ) ) 0 ) ( = ( + undef57 ( * ( - 1 ) undef64 ) ) 0 ) ( = ( + undef58 ( * ( - 1 ) undef65 ) ) 0 ) ( = undef59 0 ) ( = ( + ( - 1 ) len_181^0 ) 0 ) ( = ( + ( - 1 ) undef36 ( * ( - 1 ) undef38 ) ) 0 ) ( = ( + ( - 2 ) undef38 ) 0 ) ( <= ( + ( + Nl4CT1 ( * Nl4x_12^01 0 ) ) ( * ( + 0 Nl4a_178^01 ) a_178^0 ) ( * ( + 0 Nl4len_181^01 ) len_181^0 ) ( * ( + 0 Nl4y_11^01 ) y_11^0 ) ( * ( + 0 ( * Nl4x_12^01 1 ) ) undef81 ) ) 0 ) ( <= ( + 1 ( * ( - 1 ) len_181^0 ) ) 0 ) ( <= ( * ( - 1 ) a_178^0 ) 0 ) ( <= ( + ( - 1 ) ( * ( - 1 ) a_178^0 ) ) 0 ) ( <= ( + ( - 1 ) ( * ( - 1 ) a_178^0 ) ) 0 ) ( <= ( * ( - 1 ) a_178^0 ) 0 ) ) ( and ( not ( <= ( + 1 a_178^0 ) 0 ) ) ( <= ( * ( - 1 ) k_121^0 ) 0 ) ( <= ( * ( - 1 ) undef36 ) 0 ) ( <= ( + 1 y_11^0 ( * ( - 1 ) undef11 ) ) 0 ) ( not ( <= ( + ( * ( - 1 ) y_11^0 ) undef81 ) 0 ) ) ( not ( <= ( + ( - 1 ) len_181^0 ( * ( - 1 ) y_11^0 ) undef81 ) 0 ) ) ( = ( + a_10^0 ( * ( - 1 ) undef11 ) ) 0 ) ( = ( + undef32 ( * ( - 1 ) undef43 ) ) 0 ) ( = ( + undef32 ( * ( - 1 ) undef52 ) ) 0 ) ( = ( + undef40 ( * ( - 1 ) undef43 ) ) 0 ) ( = ( + undef46 ( * ( - 1 ) undef53 ) ) 0 ) ( = ( + undef46 ( * ( - 1 ) undef60 ) ) 0 ) ( = ( + undef48 ( * ( - 1 ) undef54 ) ) 0 ) ( = ( + undef48 ( * ( - 1 ) undef61 ) ) 0 ) ( = ( + undef50 ( * ( - 1 ) undef55 ) ) 0 ) ( = ( + undef50 ( * ( - 1 ) undef62 ) ) 0 ) ( = ( + undef53 ( * ( - 1 ) undef63 ) ) 0 ) ( = ( + undef54 ( * ( - 1 ) undef64 ) ) 0 ) ( = ( + undef55 ( * ( - 1 ) undef65 ) ) 0 ) ( = ( + undef56 ( * ( - 1 ) undef63 ) ) 0 ) ( = ( + undef57 ( * ( - 1 ) undef64 ) ) 0 ) ( = ( + undef58 ( * ( - 1 ) undef65 ) ) 0 ) ( = undef59 0 ) ( = ( + ( - 1 ) len_181^0 ) 0 ) ( = ( + ( - 1 ) undef36 ( * ( - 1 ) undef38 ) ) 0 ) ( = ( + ( - 2 ) undef38 ) 0 ) ( <= ( + ( + Nl4CT1 ( * Nl4x_12^01 0 ) ) ( * ( + 0 Nl4a_178^01 ) a_178^0 ) ( * ( + 0 Nl4len_181^01 ) len_181^0 ) ( * ( + 0 Nl4y_11^01 ) y_11^0 ) ( * ( + 0 ( * Nl4x_12^01 1 ) ) undef81 ) ) 0 ) ( <= ( + 1 ( * ( - 1 ) len_181^0 ) ) 0 ) ( <= ( * ( - 1 ) a_178^0 ) 0 ) ( <= ( + ( - 1 ) ( * ( - 1 ) a_178^0 ) ) 0 ) ( <= ( + ( - 1 ) ( * ( - 1 ) a_178^0 ) ) 0 ) ( <= ( * ( - 1 ) a_178^0 ) 0 ) ) ( and ( not ( <= ( + 1 a_178^0 ) 0 ) ) ( <= ( * ( - 1 ) k_121^0 ) 0 ) ( <= ( * ( - 1 ) undef36 ) 0 ) ( <= ( + 1 ( * ( - 1 ) y_11^0 ) undef26 ) 0 ) ( not ( <= ( + y_11^0 ( * ( - 1 ) undef97 ) ) 0 ) ) ( not ( <= ( + ( - 1 ) a_178^0 len_181^0 y_11^0 ( * ( - 1 ) undef97 ) ) 0 ) ) ( = ( + a_10^0 ( * ( - 1 ) undef26 ) ) 0 ) ( = ( + undef32 ( * ( - 1 ) undef43 ) ) 0 ) ( = ( + undef32 ( * ( - 1 ) undef52 ) ) 0 ) ( = ( + undef40 ( * ( - 1 ) undef43 ) ) 0 ) ( = ( + undef46 ( * ( - 1 ) undef53 ) ) 0 ) ( = ( + undef46 ( * ( - 1 ) undef60 ) ) 0 ) ( = ( + undef48 ( * ( - 1 ) undef54 ) ) 0 ) ( = ( + undef48 ( * ( - 1 ) undef61 ) ) 0 ) ( = ( + undef50 ( * ( - 1 ) undef55 ) ) 0 ) ( = ( + undef50 ( * ( - 1 ) undef62 ) ) 0 ) ( = ( + undef53 ( * ( - 1 ) undef63 ) ) 0 ) ( = ( + undef54 ( * ( - 1 ) undef64 ) ) 0 ) ( = ( + undef55 ( * ( - 1 ) undef65 ) ) 0 ) ( = ( + undef56 ( * ( - 1 ) undef63 ) ) 0 ) ( = ( + undef57 ( * ( - 1 ) undef64 ) ) 0 ) ( = ( + undef58 ( * ( - 1 ) undef65 ) ) 0 ) ( = undef59 0 ) ( = ( + ( - 1 ) len_181^0 ) 0 ) ( = ( + ( - 1 ) undef36 ( * ( - 1 ) undef38 ) ) 0 ) ( = ( + ( - 2 ) undef38 ) 0 ) ( <= ( + ( + Nl4CT1 ( * Nl4x_12^01 0 ) ) ( * ( + 0 Nl4a_178^01 ) a_178^0 ) ( * ( + 0 Nl4len_181^01 ) len_181^0 ) ( * ( + 0 Nl4y_11^01 ) y_11^0 ) ( * ( + 0 ( * Nl4x_12^01 1 ) ) undef97 ) ) 0 ) ( <= ( + 1 ( * ( - 1 ) len_181^0 ) ) 0 ) ( <= ( * ( - 1 ) a_178^0 ) 0 ) ( <= ( + ( - 1 ) ( * ( - 1 ) a_178^0 ) ) 0 ) ( <= ( + ( - 1 ) ( * ( - 1 ) a_178^0 ) ) 0 ) ( <= ( * ( - 1 ) a_178^0 ) 0 ) ) ( and ( not ( <= ( + 1 a_178^0 ) 0 ) ) ( <= ( * ( - 1 ) k_121^0 ) 0 ) ( <= ( * ( - 1 ) undef36 ) 0 ) ( not ( <= ( + ( * ( - 1 ) y_11^0 ) undef97 ) 0 ) ) ( <= ( + 1 ( * ( - 1 ) y_11^0 ) undef26 ) 0 ) ( not ( <= ( + ( - 1 ) len_181^0 ( * ( - 1 ) y_11^0 ) undef97 ) 0 ) ) ( = ( + a_10^0 ( * ( - 1 ) undef26 ) ) 0 ) ( = ( + undef32 ( * ( - 1 ) undef43 ) ) 0 ) ( = ( + undef32 ( * ( - 1 ) undef52 ) ) 0 ) ( = ( + undef40 ( * ( - 1 ) undef43 ) ) 0 ) ( = ( + undef46 ( * ( - 1 ) undef53 ) ) 0 ) ( = ( + undef46 ( * ( - 1 ) undef60 ) ) 0 ) ( = ( + undef48 ( * ( - 1 ) undef54 ) ) 0 ) ( = ( + undef48 ( * ( - 1 ) undef61 ) ) 0 ) ( = ( + undef50 ( * ( - 1 ) undef55 ) ) 0 ) ( = ( + undef50 ( * ( - 1 ) undef62 ) ) 0 ) ( = ( + undef53 ( * ( - 1 ) undef63 ) ) 0 ) ( = ( + undef54 ( * ( - 1 ) undef64 ) ) 0 ) ( = ( + undef55 ( * ( - 1 ) undef65 ) ) 0 ) ( = ( + undef56 ( * ( - 1 ) undef63 ) ) 0 ) ( = ( + undef57 ( * ( - 1 ) undef64 ) ) 0 ) ( = ( + undef58 ( * ( - 1 ) undef65 ) ) 0 ) ( = undef59 0 ) ( = ( + ( - 1 ) len_181^0 ) 0 ) ( = ( + ( - 1 ) undef36 ( * ( - 1 ) undef38 ) ) 0 ) ( = ( + ( - 2 ) undef38 ) 0 ) ( <= ( + ( + Nl4CT1 ( * Nl4x_12^01 0 ) ) ( * ( + 0 Nl4a_178^01 ) a_178^0 ) ( * ( + 0 Nl4len_181^01 ) len_181^0 ) ( * ( + 0 Nl4y_11^01 ) y_11^0 ) ( * ( + 0 ( * Nl4x_12^01 1 ) ) undef97 ) ) 0 ) ( <= ( + 1 ( * ( - 1 ) len_181^0 ) ) 0 ) ( <= ( * ( - 1 ) a_178^0 ) 0 ) ( <= ( + ( - 1 ) ( * ( - 1 ) a_178^0 ) ) 0 ) ( <= ( + ( - 1 ) ( * ( - 1 ) a_178^0 ) ) 0 ) ( <= ( * ( - 1 ) a_178^0 ) 0 ) ) ))
(assert ( or ( and ( and ( and ( >= lam11n0 0 ) ( >= lam11n1 0 ) ( >= lam11n2 0 ) ( >= lam11n3 0 ) ( >= lam11n4 0 ) ( >= lam11n5 0 ) ( >= lam11n6 0 ) ( >= lam11n7 0 ) ( >= lam11n8 0 ) ( >= lam11n9 0 ) ( >= lam11n10 0 ) ( >= lam11n11 0 ) ( >= lam11n12 0 ) ( > ( + ( * 1 lam11n1 ) ( * 2 lam11n2 ) ( * 50001 lam11n3 ) ( * 50001 lam11n4 ) ( * 50001 lam11n5 ) ( * 50001 lam11n6 ) ( * 50001 lam11n7 ) ( * 50001 lam11n8 ) ( * 50001 lam11n9 ) ( * 50001 lam11n10 ) ( * 50001 lam11n11 ) ( * Nl4CT1 lam11n12 ) ( - 1 ( - ( + ( + RFN1_CT ( * RFN1_len_181^0 1 ) ) ( * RFN1_x_12^0 0 ) ) RFN1_CT ) ) ) 0 ) ( = ( + ( * ( - 1 ) lam11n0 ) ( * 1 lam11n3 ) ( * 1 lam11n4 ) ( * 1 lam11n5 ) ( * ( - 1 ) lam11n6 ) ( * ( - 1 ) lam11n7 ) ( * ( - 1 ) lam11n8 ) ( * Nl4a_178^01 lam11n12 ) ( - ( - ( + 0 RFN1_a_178^0 ) RFN1_a_178^0 ) ) ) 0 ) ( = ( + ( * ( - 1 ) lam11n2 ) ( * ( - 1 ) lam11n3 ) ( * ( - 1 ) lam11n4 ) ( * ( - 1 ) lam11n5 ) ( * ( - 1 ) lam11n6 ) ( * ( - 1 ) lam11n7 ) ( * ( - 1 ) lam11n8 ) ( * ( - 1 ) lam11n9 ) ( * ( - 1 ) lam11n10 ) ( * ( - 1 ) lam11n11 ) ( * Nl4len_181^01 lam11n12 ) ( - ( - ( + 0 ( * RFN1_len_181^0 1 ) ) RFN1_len_181^0 ) ) ) 0 ) ( = ( + ( * ( - 1 ) lam11n1 ) ( * ( - 1 ) lam11n2 ) ( * Nl4x_12^01 lam11n12 ) ( - ( - RFN1_x_12^0 ) ) ) 0 ) ( = ( + ( * 1 lam11n1 ) ( * 1 lam11n2 ) ( * 1 lam11n4 ) ( * ( - 1 ) lam11n5 ) ( * 1 lam11n7 ) ( * ( - 1 ) lam11n8 ) ( * 2 lam11n10 ) ( * ( - 1 ) lam11n11 ) ( * Nl4y_11^01 lam11n12 ) ( - ( - ( + 0 RFN1_y_11^0 ) RFN1_y_11^0 ) ) ) 0 ) ( = ( - ( + 0 ( * RFN1_x_12^0 1 ) ) ) 0 ) ) ( and ( >= lam15n0 0 ) ( >= lam15n1 0 ) ( >= lam15n2 0 ) ( >= lam15n3 0 ) ( >= lam15n4 0 ) ( >= lam15n5 0 ) ( >= lam15n6 0 ) ( >= lam15n7 0 ) ( >= lam15n8 0 ) ( >= lam15n9 0 ) ( >= lam15n10 0 ) ( >= lam15n11 0 ) ( >= lam15n12 0 ) ( > ( + ( * 1 lam15n1 ) ( * 2 lam15n2 ) ( * 50001 lam15n3 ) ( * 50001 lam15n4 ) ( * 50001 lam15n5 ) ( * 50001 lam15n6 ) ( * 50001 lam15n7 ) ( * 50001 lam15n8 ) ( * 50001 lam15n9 ) ( * 50001 lam15n10 ) ( * 50001 lam15n11 ) ( * Nl4CT1 lam15n12 ) ( - 1 ( - ( + ( + RFN1_CT ( * RFN1_len_181^0 1 ) ) ( * RFN1_x_12^0 0 ) ) RFN1_CT ) ) ) 0 ) ( = ( + ( * ( - 1 ) lam15n0 ) ( * ( - 1 ) lam15n2 ) ( * 1 lam15n3 ) ( * 1 lam15n4 ) ( * 1 lam15n5 ) ( * ( - 1 ) lam15n6 ) ( * ( - 1 ) lam15n7 ) ( * ( - 1 ) lam15n8 ) ( * Nl4a_178^01 lam15n12 ) ( - ( - ( + 0 RFN1_a_178^0 ) RFN1_a_178^0 ) ) ) 0 ) ( = ( + ( * ( - 1 ) lam15n2 ) ( * ( - 1 ) lam15n3 ) ( * ( - 1 ) lam15n4 ) ( * ( - 1 ) lam15n5 ) ( * ( - 1 ) lam15n6 ) ( * ( - 1 ) lam15n7 ) ( * ( - 1 ) lam15n8 ) ( * ( - 1 ) lam15n9 ) ( * ( - 1 ) lam15n10 ) ( * ( - 1 ) lam15n11 ) ( * Nl4len_181^01 lam15n12 ) ( - ( - ( + 0 ( * RFN1_len_181^0 1 ) ) RFN1_len_181^0 ) ) ) 0 ) ( = ( + ( * 1 lam15n1 ) ( * 1 lam15n2 ) ( * Nl4x_12^01 lam15n12 ) ( - ( - RFN1_x_12^0 ) ) ) 0 ) ( = ( + ( * ( - 1 ) lam15n1 ) ( * ( - 1 ) lam15n2 ) ( * 1 lam15n4 ) ( * ( - 1 ) lam15n5 ) ( * 1 lam15n7 ) ( * ( - 1 ) lam15n8 ) ( * 2 lam15n10 ) ( * ( - 1 ) lam15n11 ) ( * Nl4y_11^01 lam15n12 ) ( - ( - ( + 0 RFN1_y_11^0 ) RFN1_y_11^0 ) ) ) 0 ) ( = ( - ( + 0 ( * RFN1_x_12^0 1 ) ) ) 0 ) ) ) ( or ( and ( and ( >= lam9n0 0 ) ( >= lam9n1 0 ) ( >= lam9n2 0 ) ( >= lam9n3 0 ) ( >= lam9n4 0 ) ( >= lam9n5 0 ) ( >= lam9n6 0 ) ( >= lam9n7 0 ) ( >= lam9n8 0 ) ( >= lam9n9 0 ) ( >= lam9n10 0 ) ( >= lam9n11 0 ) ( >= lam9n12 0 ) ( > ( + ( * 1 lam9n1 ) ( * 2 lam9n2 ) ( * 50001 lam9n3 ) ( * 50001 lam9n4 ) ( * 50001 lam9n5 ) ( * 50001 lam9n6 ) ( * 50001 lam9n7 ) ( * 50001 lam9n8 ) ( * 50001 lam9n9 ) ( * 50001 lam9n10 ) ( * 50001 lam9n11 ) ( * Nl4CT1 lam9n12 ) ( - 1 ( - RFN1_CT ) ) ) 0 ) ( = ( + ( * ( - 1 ) lam9n0 ) ( * 1 lam9n3 ) ( * 1 lam9n4 ) ( * 1 lam9n5 ) ( * ( - 1 ) lam9n6 ) ( * ( - 1 ) lam9n7 ) ( * ( - 1 ) lam9n8 ) ( * Nl4a_178^01 lam9n12 ) ( - ( - RFN1_a_178^0 ) ) ) 0 ) ( = ( + ( * ( - 1 ) lam9n2 ) ( * ( - 1 ) lam9n3 ) ( * ( - 1 ) lam9n4 ) ( * ( - 1 ) lam9n5 ) ( * ( - 1 ) lam9n6 ) ( * ( - 1 ) lam9n7 ) ( * ( - 1 ) lam9n8 ) ( * ( - 1 ) lam9n9 ) ( * ( - 1 ) lam9n10 ) ( * ( - 1 ) lam9n11 ) ( * Nl4len_181^01 lam9n12 ) ( - ( - RFN1_len_181^0 ) ) ) 0 ) ( = ( + ( * ( - 1 ) lam9n1 ) ( * ( - 1 ) lam9n2 ) ( * Nl4x_12^01 lam9n12 ) ( - ( - RFN1_x_12^0 ) ) ) 0 ) ( = ( + ( * 1 lam9n1 ) ( * 1 lam9n2 ) ( * 1 lam9n4 ) ( * ( - 1 ) lam9n5 ) ( * 1 lam9n7 ) ( * ( - 1 ) lam9n8 ) ( * 2 lam9n10 ) ( * ( - 1 ) lam9n11 ) ( * Nl4y_11^01 lam9n12 ) ( - ( - RFN1_y_11^0 ) ) ) 0 ) ) ( and ( >= lam10n0 0 ) ( >= lam10n1 0 ) ( >= lam10n2 0 ) ( >= lam10n3 0 ) ( >= lam10n4 0 ) ( >= lam10n5 0 ) ( >= lam10n6 0 ) ( >= lam10n7 0 ) ( >= lam10n8 0 ) ( >= lam10n9 0 ) ( >= lam10n10 0 ) ( >= lam10n11 0 ) ( >= lam10n12 0 ) ( > ( + ( * 1 lam10n1 ) ( * 2 lam10n2 ) ( * 50001 lam10n3 ) ( * 50001 lam10n4 ) ( * 50001 lam10n5 ) ( * 50001 lam10n6 ) ( * 50001 lam10n7 ) ( * 50001 lam10n8 ) ( * 50001 lam10n9 ) ( * 50001 lam10n10 ) ( * 50001 lam10n11 ) ( * Nl4CT1 lam10n12 ) ( - 1 ( + ( - ( + ( + RFN1_CT ( * RFN1_len_181^0 1 ) ) ( * RFN1_x_12^0 0 ) ) RFN1_CT ) 1 ) ) ) 0 ) ( = ( + ( * ( - 1 ) lam10n0 ) ( * 1 lam10n3 ) ( * 1 lam10n4 ) ( * 1 lam10n5 ) ( * ( - 1 ) lam10n6 ) ( * ( - 1 ) lam10n7 ) ( * ( - 1 ) lam10n8 ) ( * Nl4a_178^01 lam10n12 ) ( - ( - ( + 0 RFN1_a_178^0 ) RFN1_a_178^0 ) ) ) 0 ) ( = ( + ( * ( - 1 ) lam10n2 ) ( * ( - 1 ) lam10n3 ) ( * ( - 1 ) lam10n4 ) ( * ( - 1 ) lam10n5 ) ( * ( - 1 ) lam10n6 ) ( * ( - 1 ) lam10n7 ) ( * ( - 1 ) lam10n8 ) ( * ( - 1 ) lam10n9 ) ( * ( - 1 ) lam10n10 ) ( * ( - 1 ) lam10n11 ) ( * Nl4len_181^01 lam10n12 ) ( - ( - ( + 0 ( * RFN1_len_181^0 1 ) ) RFN1_len_181^0 ) ) ) 0 ) ( = ( + ( * ( - 1 ) lam10n1 ) ( * ( - 1 ) lam10n2 ) ( * Nl4x_12^01 lam10n12 ) ( - ( - RFN1_x_12^0 ) ) ) 0 ) ( = ( + ( * 1 lam10n1 ) ( * 1 lam10n2 ) ( * 1 lam10n4 ) ( * ( - 1 ) lam10n5 ) ( * 1 lam10n7 ) ( * ( - 1 ) lam10n8 ) ( * 2 lam10n10 ) ( * ( - 1 ) lam10n11 ) ( * Nl4y_11^01 lam10n12 ) ( - ( - ( + 0 RFN1_y_11^0 ) RFN1_y_11^0 ) ) ) 0 ) ( = ( - ( + 0 ( * RFN1_x_12^0 1 ) ) ) 0 ) ) ) ( and ( and ( >= lam13n0 0 ) ( >= lam13n1 0 ) ( >= lam13n2 0 ) ( >= lam13n3 0 ) ( >= lam13n4 0 ) ( >= lam13n5 0 ) ( >= lam13n6 0 ) ( >= lam13n7 0 ) ( >= lam13n8 0 ) ( >= lam13n9 0 ) ( >= lam13n10 0 ) ( >= lam13n11 0 ) ( >= lam13n12 0 ) ( > ( + ( * 1 lam13n1 ) ( * 2 lam13n2 ) ( * 50001 lam13n3 ) ( * 50001 lam13n4 ) ( * 50001 lam13n5 ) ( * 50001 lam13n6 ) ( * 50001 lam13n7 ) ( * 50001 lam13n8 ) ( * 50001 lam13n9 ) ( * 50001 lam13n10 ) ( * 50001 lam13n11 ) ( * Nl4CT1 lam13n12 ) ( - 1 ( - RFN1_CT ) ) ) 0 ) ( = ( + ( * ( - 1 ) lam13n0 ) ( * ( - 1 ) lam13n2 ) ( * 1 lam13n3 ) ( * 1 lam13n4 ) ( * 1 lam13n5 ) ( * ( - 1 ) lam13n6 ) ( * ( - 1 ) lam13n7 ) ( * ( - 1 ) lam13n8 ) ( * Nl4a_178^01 lam13n12 ) ( - ( - RFN1_a_178^0 ) ) ) 0 ) ( = ( + ( * ( - 1 ) lam13n2 ) ( * ( - 1 ) lam13n3 ) ( * ( - 1 ) lam13n4 ) ( * ( - 1 ) lam13n5 ) ( * ( - 1 ) lam13n6 ) ( * ( - 1 ) lam13n7 ) ( * ( - 1 ) lam13n8 ) ( * ( - 1 ) lam13n9 ) ( * ( - 1 ) lam13n10 ) ( * ( - 1 ) lam13n11 ) ( * Nl4len_181^01 lam13n12 ) ( - ( - RFN1_len_181^0 ) ) ) 0 ) ( = ( + ( * 1 lam13n1 ) ( * 1 lam13n2 ) ( * Nl4x_12^01 lam13n12 ) ( - ( - RFN1_x_12^0 ) ) ) 0 ) ( = ( + ( * ( - 1 ) lam13n1 ) ( * ( - 1 ) lam13n2 ) ( * 1 lam13n4 ) ( * ( - 1 ) lam13n5 ) ( * 1 lam13n7 ) ( * ( - 1 ) lam13n8 ) ( * 2 lam13n10 ) ( * ( - 1 ) lam13n11 ) ( * Nl4y_11^01 lam13n12 ) ( - ( - RFN1_y_11^0 ) ) ) 0 ) ) ( and ( >= lam14n0 0 ) ( >= lam14n1 0 ) ( >= lam14n2 0 ) ( >= lam14n3 0 ) ( >= lam14n4 0 ) ( >= lam14n5 0 ) ( >= lam14n6 0 ) ( >= lam14n7 0 ) ( >= lam14n8 0 ) ( >= lam14n9 0 ) ( >= lam14n10 0 ) ( >= lam14n11 0 ) ( >= lam14n12 0 ) ( > ( + ( * 1 lam14n1 ) ( * 2 lam14n2 ) ( * 50001 lam14n3 ) ( * 50001 lam14n4 ) ( * 50001 lam14n5 ) ( * 50001 lam14n6 ) ( * 50001 lam14n7 ) ( * 50001 lam14n8 ) ( * 50001 lam14n9 ) ( * 50001 lam14n10 ) ( * 50001 lam14n11 ) ( * Nl4CT1 lam14n12 ) ( - 1 ( + ( - ( + ( + RFN1_CT ( * RFN1_len_181^0 1 ) ) ( * RFN1_x_12^0 0 ) ) RFN1_CT ) 1 ) ) ) 0 ) ( = ( + ( * ( - 1 ) lam14n0 ) ( * ( - 1 ) lam14n2 ) ( * 1 lam14n3 ) ( * 1 lam14n4 ) ( * 1 lam14n5 ) ( * ( - 1 ) lam14n6 ) ( * ( - 1 ) lam14n7 ) ( * ( - 1 ) lam14n8 ) ( * Nl4a_178^01 lam14n12 ) ( - ( - ( + 0 RFN1_a_178^0 ) RFN1_a_178^0 ) ) ) 0 ) ( = ( + ( * ( - 1 ) lam14n2 ) ( * ( - 1 ) lam14n3 ) ( * ( - 1 ) lam14n4 ) ( * ( - 1 ) lam14n5 ) ( * ( - 1 ) lam14n6 ) ( * ( - 1 ) lam14n7 ) ( * ( - 1 ) lam14n8 ) ( * ( - 1 ) lam14n9 ) ( * ( - 1 ) lam14n10 ) ( * ( - 1 ) lam14n11 ) ( * Nl4len_181^01 lam14n12 ) ( - ( - ( + 0 ( * RFN1_len_181^0 1 ) ) RFN1_len_181^0 ) ) ) 0 ) ( = ( + ( * 1 lam14n1 ) ( * 1 lam14n2 ) ( * Nl4x_12^01 lam14n12 ) ( - ( - RFN1_x_12^0 ) ) ) 0 ) ( = ( + ( * ( - 1 ) lam14n1 ) ( * ( - 1 ) lam14n2 ) ( * 1 lam14n4 ) ( * ( - 1 ) lam14n5 ) ( * 1 lam14n7 ) ( * ( - 1 ) lam14n8 ) ( * 2 lam14n10 ) ( * ( - 1 ) lam14n11 ) ( * Nl4y_11^01 lam14n12 ) ( - ( - ( + 0 RFN1_y_11^0 ) RFN1_y_11^0 ) ) ) 0 ) ( = ( - ( + 0 ( * RFN1_x_12^0 1 ) ) ) 0 ) ) ) ) ) ( or ( and ( >= lam8n0 0 ) ( >= lam8n1 0 ) ( >= lam8n2 0 ) ( >= lam8n3 0 ) ( >= lam8n4 0 ) ( >= lam8n5 0 ) ( >= lam8n6 0 ) ( >= lam8n7 0 ) ( >= lam8n8 0 ) ( >= lam8n9 0 ) ( >= lam8n10 0 ) ( >= lam8n11 0 ) ( >= lam8n12 0 ) ( > ( + ( * 1 lam8n1 ) ( * 2 lam8n2 ) ( * 50001 lam8n3 ) ( * 50001 lam8n4 ) ( * 50001 lam8n5 ) ( * 50001 lam8n6 ) ( * 50001 lam8n7 ) ( * 50001 lam8n8 ) ( * 50001 lam8n9 ) ( * 50001 lam8n10 ) ( * 50001 lam8n11 ) ( * Nl4CT1 lam8n12 ) ( - 1 ) ) 0 ) ( = ( + ( * ( - 1 ) lam8n0 ) ( * 1 lam8n3 ) ( * 1 lam8n4 ) ( * 1 lam8n5 ) ( * ( - 1 ) lam8n6 ) ( * ( - 1 ) lam8n7 ) ( * ( - 1 ) lam8n8 ) ( * Nl4a_178^01 lam8n12 ) ) 0 ) ( = ( + ( * ( - 1 ) lam8n2 ) ( * ( - 1 ) lam8n3 ) ( * ( - 1 ) lam8n4 ) ( * ( - 1 ) lam8n5 ) ( * ( - 1 ) lam8n6 ) ( * ( - 1 ) lam8n7 ) ( * ( - 1 ) lam8n8 ) ( * ( - 1 ) lam8n9 ) ( * ( - 1 ) lam8n10 ) ( * ( - 1 ) lam8n11 ) ( * Nl4len_181^01 lam8n12 ) ) 0 ) ( = ( + ( * ( - 1 ) lam8n1 ) ( * ( - 1 ) lam8n2 ) ( * Nl4x_12^01 lam8n12 ) ) 0 ) ( = ( + ( * 1 lam8n1 ) ( * 1 lam8n2 ) ( * 1 lam8n4 ) ( * ( - 1 ) lam8n5 ) ( * 1 lam8n7 ) ( * ( - 1 ) lam8n8 ) ( * 2 lam8n10 ) ( * ( - 1 ) lam8n11 ) ( * Nl4y_11^01 lam8n12 ) ) 0 ) ) ( and ( >= lam12n0 0 ) ( >= lam12n1 0 ) ( >= lam12n2 0 ) ( >= lam12n3 0 ) ( >= lam12n4 0 ) ( >= lam12n5 0 ) ( >= lam12n6 0 ) ( >= lam12n7 0 ) ( >= lam12n8 0 ) ( >= lam12n9 0 ) ( >= lam12n10 0 ) ( >= lam12n11 0 ) ( >= lam12n12 0 ) ( > ( + ( * 1 lam12n1 ) ( * 2 lam12n2 ) ( * 50001 lam12n3 ) ( * 50001 lam12n4 ) ( * 50001 lam12n5 ) ( * 50001 lam12n6 ) ( * 50001 lam12n7 ) ( * 50001 lam12n8 ) ( * 50001 lam12n9 ) ( * 50001 lam12n10 ) ( * 50001 lam12n11 ) ( * Nl4CT1 lam12n12 ) ( - 1 ) ) 0 ) ( = ( + ( * ( - 1 ) lam12n0 ) ( * ( - 1 ) lam12n2 ) ( * 1 lam12n3 ) ( * 1 lam12n4 ) ( * 1 lam12n5 ) ( * ( - 1 ) lam12n6 ) ( * ( - 1 ) lam12n7 ) ( * ( - 1 ) lam12n8 ) ( * Nl4a_178^01 lam12n12 ) ) 0 ) ( = ( + ( * ( - 1 ) lam12n2 ) ( * ( - 1 ) lam12n3 ) ( * ( - 1 ) lam12n4 ) ( * ( - 1 ) lam12n5 ) ( * ( - 1 ) lam12n6 ) ( * ( - 1 ) lam12n7 ) ( * ( - 1 ) lam12n8 ) ( * ( - 1 ) lam12n9 ) ( * ( - 1 ) lam12n10 ) ( * ( - 1 ) lam12n11 ) ( * Nl4len_181^01 lam12n12 ) ) 0 ) ( = ( + ( * 1 lam12n1 ) ( * 1 lam12n2 ) ( * Nl4x_12^01 lam12n12 ) ) 0 ) ( = ( + ( * ( - 1 ) lam12n1 ) ( * ( - 1 ) lam12n2 ) ( * 1 lam12n4 ) ( * ( - 1 ) lam12n5 ) ( * 1 lam12n7 ) ( * ( - 1 ) lam12n8 ) ( * 2 lam12n10 ) ( * ( - 1 ) lam12n11 ) ( * Nl4y_11^01 lam12n12 ) ) 0 ) ) ) ))
(check-sat)
(exit)
